; 
(set-info :status unknown)
(declare-fun _0 (Int Int) Bool)
(declare-fun _1 (Int Int) Bool)
(declare-fun _2 (Int Int) Bool)
(declare-fun _3 (Int Int) Bool)
(declare-fun _4 (Int Int) Bool)
(declare-fun _5 (Int Int) Bool)
(declare-fun _6 (Int Int) Bool)
(declare-fun _7 (Int Int) Bool)
(declare-fun _8 (Int Int) Bool)
(declare-fun _9 (Int Int) Bool)
(declare-fun _10 (Int Int) Bool)
(declare-fun _11 (Int Int) Bool)
(declare-fun _12 (Int Int) Bool)
(declare-fun _13 (Int Int) Bool)
(declare-fun _14 (Int Int) Bool)
(declare-fun _15 (Int Int) Bool)
(declare-fun _16 (Int Int) Bool)
(declare-fun _17 (Int Int) Bool)
(declare-fun _18 (Int Int) Bool)
(declare-fun _19 (Int Int) Bool)
(declare-fun _20 (Int Int) Bool)
(declare-fun _21 (Int Int) Bool)
(declare-fun _22 (Int Int) Bool)
(declare-fun _23 (Int Int) Bool)
(declare-fun _24 (Int Int) Bool)
(declare-fun _25 (Int Int) Bool)
(declare-fun _26 (Int Int) Bool)
(declare-fun _27 (Int Int) Bool)
(declare-fun _28 (Int Int) Bool)
(declare-fun _29 (Int Int) Bool)
(declare-fun _30 (Int Int) Bool)
(declare-fun _31 (Int Int) Bool)
(declare-fun _32 (Int Int) Bool)
(declare-fun _33 (Int Int) Bool)
(declare-fun _34 (Int Int) Bool)
(declare-fun _35 (Int Int) Bool)
(declare-fun _36 (Int Int) Bool)
(declare-fun _37 (Int Int) Bool)
(declare-fun _38 (Int Int) Bool)
(declare-fun _39 (Int Int) Bool)
(declare-fun _40 (Int Int) Bool)
(declare-fun _41 (Int Int) Bool)
(declare-fun _42 (Int Int) Bool)
(declare-fun _43 (Int Int) Bool)
(declare-fun _44 (Int Int) Bool)
(declare-fun _45 (Int Int) Bool)
(declare-fun _46 (Int Int) Bool)
(declare-fun _47 (Int Int) Bool)
(declare-fun _48 (Int Int) Bool)
(declare-fun _49 (Int Int) Bool)
(declare-fun _50 (Int Int) Bool)
(declare-fun _51 (Int Int) Bool)
(declare-fun _52 (Int Int) Bool)
(declare-fun _53 (Int Int) Bool)
(declare-fun _54 (Int Int) Bool)
(declare-fun _55 (Int Int) Bool)
(declare-fun _56 (Int Int) Bool)
(declare-fun _57 (Int Int) Bool)
(declare-fun _58 (Int Int) Bool)
(declare-fun _59 (Int Int) Bool)
(declare-fun _60 (Int Int) Bool)
(declare-fun _61 (Int Int) Bool)
(declare-fun _62 (Int Int) Bool)
(declare-fun _63 (Int Int) Bool)
(declare-fun _64 (Int Int) Bool)
(declare-fun _65 (Int Int) Bool)
(declare-fun _66 (Int Int) Bool)
(declare-fun _67 (Int Int) Bool)
(declare-fun _68 (Int Int) Bool)
(declare-fun _69 (Int Int) Bool)
(declare-fun _70 (Int Int) Bool)
(declare-fun _71 (Int Int) Bool)
(declare-fun _72 (Int Int) Bool)
(declare-fun _73 (Int Int) Bool)
(declare-fun _74 (Int Int) Bool)
(declare-fun _75 (Int Int) Bool)
(declare-fun _76 (Int Int) Bool)
(declare-fun _77 (Int Int) Bool)
(declare-fun _78 (Int Int) Bool)
(declare-fun _79 (Int Int) Bool)
(declare-fun _80 (Int Int) Bool)
(declare-fun _81 (Int Int) Bool)
(declare-fun _82 (Int Int) Bool)
(declare-fun _83 (Int Int) Bool)
(declare-fun _84 (Int Int) Bool)
(declare-fun _85 (Int Int) Bool)
(declare-fun _86 (Int Int) Bool)
(declare-fun _87 (Int Int) Bool)
(declare-fun _88 (Int Int) Bool)
(declare-fun _89 (Int Int) Bool)
(declare-fun _90 (Int Int) Bool)
(declare-fun _91 (Int Int) Bool)
(declare-fun _92 (Int Int) Bool)
(declare-fun _93 (Int Int) Bool)
(declare-fun _94 (Int Int) Bool)
(declare-fun _95 (Int Int) Bool)
(declare-fun _96 (Int Int) Bool)
(declare-fun _97 (Int Int) Bool)
(declare-fun _98 (Int Int) Bool)
(declare-fun _99 (Int Int) Bool)
(declare-fun _100 (Int Int) Bool)
(assert
 (forall ((arg0 Int) )(let (($x12 (_0 0 0)))
 (let (($x16 (>= arg0 0)))
 (=> $x16 $x12))))
 )
(assert
 (forall ((time Int) )(let (($x61 (forall ((arg0 Int) )(let (($x16 (>= arg0 0)))
 (=> (and $x16 (_0 arg0 time)) (_1 (+ arg0 1) (+ time 1)))))
 ))
 (let (($x16 (>= time 0)))
 (let (($x63 (and $x16 (< time 100))))
 (=> $x63 $x61)))))
 )
(assert
 (forall ((time Int) )(let (($x82 (forall ((arg0 Int) )(let (($x16 (>= arg0 0)))
 (=> (and $x16 (_1 arg0 time)) (_2 (+ arg0 1) (+ time 1)))))
 ))
 (let (($x16 (>= time 0)))
 (let (($x63 (and $x16 (< time 100))))
 (=> $x63 $x82)))))
 )
(assert
 (forall ((time Int) )(let (($x95 (forall ((arg0 Int) )(let (($x16 (>= arg0 0)))
 (=> (and $x16 (_2 arg0 time)) (_3 (+ arg0 1) (+ time 1)))))
 ))
 (let (($x16 (>= time 0)))
 (let (($x63 (and $x16 (< time 100))))
 (=> $x63 $x95)))))
 )
(assert
 (forall ((time Int) )(let (($x108 (forall ((arg0 Int) )(let (($x16 (>= arg0 0)))
 (=> (and $x16 (_3 arg0 time)) (_4 (+ arg0 1) (+ time 1)))))
 ))
 (let (($x16 (>= time 0)))
 (let (($x63 (and $x16 (< time 100))))
 (=> $x63 $x108)))))
 )
(assert
 (forall ((time Int) )(let (($x121 (forall ((arg0 Int) )(let (($x16 (>= arg0 0)))
 (=> (and $x16 (_4 arg0 time)) (_5 (+ arg0 1) (+ time 1)))))
 ))
 (let (($x16 (>= time 0)))
 (let (($x63 (and $x16 (< time 100))))
 (=> $x63 $x121)))))
 )
(assert
 (forall ((time Int) )(let (($x134 (forall ((arg0 Int) )(let (($x16 (>= arg0 0)))
 (=> (and $x16 (_5 arg0 time)) (_6 (+ arg0 1) (+ time 1)))))
 ))
 (let (($x16 (>= time 0)))
 (let (($x63 (and $x16 (< time 100))))
 (=> $x63 $x134)))))
 )
(assert
 (forall ((time Int) )(let (($x147 (forall ((arg0 Int) )(let (($x16 (>= arg0 0)))
 (=> (and $x16 (_6 arg0 time)) (_7 (+ arg0 1) (+ time 1)))))
 ))
 (let (($x16 (>= time 0)))
 (let (($x63 (and $x16 (< time 100))))
 (=> $x63 $x147)))))
 )
(assert
 (forall ((time Int) )(let (($x160 (forall ((arg0 Int) )(let (($x16 (>= arg0 0)))
 (=> (and $x16 (_7 arg0 time)) (_8 (+ arg0 1) (+ time 1)))))
 ))
 (let (($x16 (>= time 0)))
 (let (($x63 (and $x16 (< time 100))))
 (=> $x63 $x160)))))
 )
(assert
 (forall ((time Int) )(let (($x173 (forall ((arg0 Int) )(let (($x16 (>= arg0 0)))
 (=> (and $x16 (_8 arg0 time)) (_9 (+ arg0 1) (+ time 1)))))
 ))
 (let (($x16 (>= time 0)))
 (let (($x63 (and $x16 (< time 100))))
 (=> $x63 $x173)))))
 )
(assert
 (forall ((time Int) )(let (($x186 (forall ((arg0 Int) )(let (($x16 (>= arg0 0)))
 (=> (and $x16 (_9 arg0 time)) (_10 (+ arg0 1) (+ time 1)))))
 ))
 (let (($x16 (>= time 0)))
 (let (($x63 (and $x16 (< time 100))))
 (=> $x63 $x186)))))
 )
(assert
 (forall ((time Int) )(let (($x199 (forall ((arg0 Int) )(let (($x16 (>= arg0 0)))
 (=> (and $x16 (_10 arg0 time)) (_11 (+ arg0 1) (+ time 1)))))
 ))
 (let (($x16 (>= time 0)))
 (let (($x63 (and $x16 (< time 100))))
 (=> $x63 $x199)))))
 )
(assert
 (forall ((time Int) )(let (($x212 (forall ((arg0 Int) )(let (($x16 (>= arg0 0)))
 (=> (and $x16 (_11 arg0 time)) (_12 (+ arg0 1) (+ time 1)))))
 ))
 (let (($x16 (>= time 0)))
 (let (($x63 (and $x16 (< time 100))))
 (=> $x63 $x212)))))
 )
(assert
 (forall ((time Int) )(let (($x225 (forall ((arg0 Int) )(let (($x16 (>= arg0 0)))
 (=> (and $x16 (_12 arg0 time)) (_13 (+ arg0 1) (+ time 1)))))
 ))
 (let (($x16 (>= time 0)))
 (let (($x63 (and $x16 (< time 100))))
 (=> $x63 $x225)))))
 )
(assert
 (forall ((time Int) )(let (($x238 (forall ((arg0 Int) )(let (($x16 (>= arg0 0)))
 (=> (and $x16 (_13 arg0 time)) (_14 (+ arg0 1) (+ time 1)))))
 ))
 (let (($x16 (>= time 0)))
 (let (($x63 (and $x16 (< time 100))))
 (=> $x63 $x238)))))
 )
(assert
 (forall ((time Int) )(let (($x251 (forall ((arg0 Int) )(let (($x16 (>= arg0 0)))
 (=> (and $x16 (_14 arg0 time)) (_15 (+ arg0 1) (+ time 1)))))
 ))
 (let (($x16 (>= time 0)))
 (let (($x63 (and $x16 (< time 100))))
 (=> $x63 $x251)))))
 )
(assert
 (forall ((time Int) )(let (($x264 (forall ((arg0 Int) )(let (($x16 (>= arg0 0)))
 (=> (and $x16 (_15 arg0 time)) (_16 (+ arg0 1) (+ time 1)))))
 ))
 (let (($x16 (>= time 0)))
 (let (($x63 (and $x16 (< time 100))))
 (=> $x63 $x264)))))
 )
(assert
 (forall ((time Int) )(let (($x277 (forall ((arg0 Int) )(let (($x16 (>= arg0 0)))
 (=> (and $x16 (_16 arg0 time)) (_17 (+ arg0 1) (+ time 1)))))
 ))
 (let (($x16 (>= time 0)))
 (let (($x63 (and $x16 (< time 100))))
 (=> $x63 $x277)))))
 )
(assert
 (forall ((time Int) )(let (($x290 (forall ((arg0 Int) )(let (($x16 (>= arg0 0)))
 (=> (and $x16 (_17 arg0 time)) (_18 (+ arg0 1) (+ time 1)))))
 ))
 (let (($x16 (>= time 0)))
 (let (($x63 (and $x16 (< time 100))))
 (=> $x63 $x290)))))
 )
(assert
 (forall ((time Int) )(let (($x303 (forall ((arg0 Int) )(let (($x16 (>= arg0 0)))
 (=> (and $x16 (_18 arg0 time)) (_19 (+ arg0 1) (+ time 1)))))
 ))
 (let (($x16 (>= time 0)))
 (let (($x63 (and $x16 (< time 100))))
 (=> $x63 $x303)))))
 )
(assert
 (forall ((time Int) )(let (($x316 (forall ((arg0 Int) )(let (($x16 (>= arg0 0)))
 (=> (and $x16 (_19 arg0 time)) (_20 (+ arg0 1) (+ time 1)))))
 ))
 (let (($x16 (>= time 0)))
 (let (($x63 (and $x16 (< time 100))))
 (=> $x63 $x316)))))
 )
(assert
 (forall ((time Int) )(let (($x329 (forall ((arg0 Int) )(let (($x16 (>= arg0 0)))
 (=> (and $x16 (_20 arg0 time)) (_21 (+ arg0 1) (+ time 1)))))
 ))
 (let (($x16 (>= time 0)))
 (let (($x63 (and $x16 (< time 100))))
 (=> $x63 $x329)))))
 )
(assert
 (forall ((time Int) )(let (($x342 (forall ((arg0 Int) )(let (($x16 (>= arg0 0)))
 (=> (and $x16 (_21 arg0 time)) (_22 (+ arg0 1) (+ time 1)))))
 ))
 (let (($x16 (>= time 0)))
 (let (($x63 (and $x16 (< time 100))))
 (=> $x63 $x342)))))
 )
(assert
 (forall ((time Int) )(let (($x355 (forall ((arg0 Int) )(let (($x16 (>= arg0 0)))
 (=> (and $x16 (_22 arg0 time)) (_23 (+ arg0 1) (+ time 1)))))
 ))
 (let (($x16 (>= time 0)))
 (let (($x63 (and $x16 (< time 100))))
 (=> $x63 $x355)))))
 )
(assert
 (forall ((time Int) )(let (($x368 (forall ((arg0 Int) )(let (($x16 (>= arg0 0)))
 (=> (and $x16 (_23 arg0 time)) (_24 (+ arg0 1) (+ time 1)))))
 ))
 (let (($x16 (>= time 0)))
 (let (($x63 (and $x16 (< time 100))))
 (=> $x63 $x368)))))
 )
(assert
 (forall ((time Int) )(let (($x381 (forall ((arg0 Int) )(let (($x16 (>= arg0 0)))
 (=> (and $x16 (_24 arg0 time)) (_25 (+ arg0 1) (+ time 1)))))
 ))
 (let (($x16 (>= time 0)))
 (let (($x63 (and $x16 (< time 100))))
 (=> $x63 $x381)))))
 )
(assert
 (forall ((time Int) )(let (($x394 (forall ((arg0 Int) )(let (($x16 (>= arg0 0)))
 (=> (and $x16 (_25 arg0 time)) (_26 (+ arg0 1) (+ time 1)))))
 ))
 (let (($x16 (>= time 0)))
 (let (($x63 (and $x16 (< time 100))))
 (=> $x63 $x394)))))
 )
(assert
 (forall ((time Int) )(let (($x407 (forall ((arg0 Int) )(let (($x16 (>= arg0 0)))
 (=> (and $x16 (_26 arg0 time)) (_27 (+ arg0 1) (+ time 1)))))
 ))
 (let (($x16 (>= time 0)))
 (let (($x63 (and $x16 (< time 100))))
 (=> $x63 $x407)))))
 )
(assert
 (forall ((time Int) )(let (($x420 (forall ((arg0 Int) )(let (($x16 (>= arg0 0)))
 (=> (and $x16 (_27 arg0 time)) (_28 (+ arg0 1) (+ time 1)))))
 ))
 (let (($x16 (>= time 0)))
 (let (($x63 (and $x16 (< time 100))))
 (=> $x63 $x420)))))
 )
(assert
 (forall ((time Int) )(let (($x433 (forall ((arg0 Int) )(let (($x16 (>= arg0 0)))
 (=> (and $x16 (_28 arg0 time)) (_29 (+ arg0 1) (+ time 1)))))
 ))
 (let (($x16 (>= time 0)))
 (let (($x63 (and $x16 (< time 100))))
 (=> $x63 $x433)))))
 )
(assert
 (forall ((time Int) )(let (($x446 (forall ((arg0 Int) )(let (($x16 (>= arg0 0)))
 (=> (and $x16 (_29 arg0 time)) (_30 (+ arg0 1) (+ time 1)))))
 ))
 (let (($x16 (>= time 0)))
 (let (($x63 (and $x16 (< time 100))))
 (=> $x63 $x446)))))
 )
(assert
 (forall ((time Int) )(let (($x459 (forall ((arg0 Int) )(let (($x16 (>= arg0 0)))
 (=> (and $x16 (_30 arg0 time)) (_31 (+ arg0 1) (+ time 1)))))
 ))
 (let (($x16 (>= time 0)))
 (let (($x63 (and $x16 (< time 100))))
 (=> $x63 $x459)))))
 )
(assert
 (forall ((time Int) )(let (($x472 (forall ((arg0 Int) )(let (($x16 (>= arg0 0)))
 (=> (and $x16 (_31 arg0 time)) (_32 (+ arg0 1) (+ time 1)))))
 ))
 (let (($x16 (>= time 0)))
 (let (($x63 (and $x16 (< time 100))))
 (=> $x63 $x472)))))
 )
(assert
 (forall ((time Int) )(let (($x485 (forall ((arg0 Int) )(let (($x16 (>= arg0 0)))
 (=> (and $x16 (_32 arg0 time)) (_33 (+ arg0 1) (+ time 1)))))
 ))
 (let (($x16 (>= time 0)))
 (let (($x63 (and $x16 (< time 100))))
 (=> $x63 $x485)))))
 )
(assert
 (forall ((time Int) )(let (($x498 (forall ((arg0 Int) )(let (($x16 (>= arg0 0)))
 (=> (and $x16 (_33 arg0 time)) (_34 (+ arg0 1) (+ time 1)))))
 ))
 (let (($x16 (>= time 0)))
 (let (($x63 (and $x16 (< time 100))))
 (=> $x63 $x498)))))
 )
(assert
 (forall ((time Int) )(let (($x511 (forall ((arg0 Int) )(let (($x16 (>= arg0 0)))
 (=> (and $x16 (_34 arg0 time)) (_35 (+ arg0 1) (+ time 1)))))
 ))
 (let (($x16 (>= time 0)))
 (let (($x63 (and $x16 (< time 100))))
 (=> $x63 $x511)))))
 )
(assert
 (forall ((time Int) )(let (($x524 (forall ((arg0 Int) )(let (($x16 (>= arg0 0)))
 (=> (and $x16 (_35 arg0 time)) (_36 (+ arg0 1) (+ time 1)))))
 ))
 (let (($x16 (>= time 0)))
 (let (($x63 (and $x16 (< time 100))))
 (=> $x63 $x524)))))
 )
(assert
 (forall ((time Int) )(let (($x537 (forall ((arg0 Int) )(let (($x16 (>= arg0 0)))
 (=> (and $x16 (_36 arg0 time)) (_37 (+ arg0 1) (+ time 1)))))
 ))
 (let (($x16 (>= time 0)))
 (let (($x63 (and $x16 (< time 100))))
 (=> $x63 $x537)))))
 )
(assert
 (forall ((time Int) )(let (($x550 (forall ((arg0 Int) )(let (($x16 (>= arg0 0)))
 (=> (and $x16 (_37 arg0 time)) (_38 (+ arg0 1) (+ time 1)))))
 ))
 (let (($x16 (>= time 0)))
 (let (($x63 (and $x16 (< time 100))))
 (=> $x63 $x550)))))
 )
(assert
 (forall ((time Int) )(let (($x563 (forall ((arg0 Int) )(let (($x16 (>= arg0 0)))
 (=> (and $x16 (_38 arg0 time)) (_39 (+ arg0 1) (+ time 1)))))
 ))
 (let (($x16 (>= time 0)))
 (let (($x63 (and $x16 (< time 100))))
 (=> $x63 $x563)))))
 )
(assert
 (forall ((time Int) )(let (($x576 (forall ((arg0 Int) )(let (($x16 (>= arg0 0)))
 (=> (and $x16 (_39 arg0 time)) (_40 (+ arg0 1) (+ time 1)))))
 ))
 (let (($x16 (>= time 0)))
 (let (($x63 (and $x16 (< time 100))))
 (=> $x63 $x576)))))
 )
(assert
 (forall ((time Int) )(let (($x589 (forall ((arg0 Int) )(let (($x16 (>= arg0 0)))
 (=> (and $x16 (_40 arg0 time)) (_41 (+ arg0 1) (+ time 1)))))
 ))
 (let (($x16 (>= time 0)))
 (let (($x63 (and $x16 (< time 100))))
 (=> $x63 $x589)))))
 )
(assert
 (forall ((time Int) )(let (($x602 (forall ((arg0 Int) )(let (($x16 (>= arg0 0)))
 (=> (and $x16 (_41 arg0 time)) (_42 (+ arg0 1) (+ time 1)))))
 ))
 (let (($x16 (>= time 0)))
 (let (($x63 (and $x16 (< time 100))))
 (=> $x63 $x602)))))
 )
(assert
 (forall ((time Int) )(let (($x615 (forall ((arg0 Int) )(let (($x16 (>= arg0 0)))
 (=> (and $x16 (_42 arg0 time)) (_43 (+ arg0 1) (+ time 1)))))
 ))
 (let (($x16 (>= time 0)))
 (let (($x63 (and $x16 (< time 100))))
 (=> $x63 $x615)))))
 )
(assert
 (forall ((time Int) )(let (($x628 (forall ((arg0 Int) )(let (($x16 (>= arg0 0)))
 (=> (and $x16 (_43 arg0 time)) (_44 (+ arg0 1) (+ time 1)))))
 ))
 (let (($x16 (>= time 0)))
 (let (($x63 (and $x16 (< time 100))))
 (=> $x63 $x628)))))
 )
(assert
 (forall ((time Int) )(let (($x641 (forall ((arg0 Int) )(let (($x16 (>= arg0 0)))
 (=> (and $x16 (_44 arg0 time)) (_45 (+ arg0 1) (+ time 1)))))
 ))
 (let (($x16 (>= time 0)))
 (let (($x63 (and $x16 (< time 100))))
 (=> $x63 $x641)))))
 )
(assert
 (forall ((time Int) )(let (($x654 (forall ((arg0 Int) )(let (($x16 (>= arg0 0)))
 (=> (and $x16 (_45 arg0 time)) (_46 (+ arg0 1) (+ time 1)))))
 ))
 (let (($x16 (>= time 0)))
 (let (($x63 (and $x16 (< time 100))))
 (=> $x63 $x654)))))
 )
(assert
 (forall ((time Int) )(let (($x667 (forall ((arg0 Int) )(let (($x16 (>= arg0 0)))
 (=> (and $x16 (_46 arg0 time)) (_47 (+ arg0 1) (+ time 1)))))
 ))
 (let (($x16 (>= time 0)))
 (let (($x63 (and $x16 (< time 100))))
 (=> $x63 $x667)))))
 )
(assert
 (forall ((time Int) )(let (($x680 (forall ((arg0 Int) )(let (($x16 (>= arg0 0)))
 (=> (and $x16 (_47 arg0 time)) (_48 (+ arg0 1) (+ time 1)))))
 ))
 (let (($x16 (>= time 0)))
 (let (($x63 (and $x16 (< time 100))))
 (=> $x63 $x680)))))
 )
(assert
 (forall ((time Int) )(let (($x693 (forall ((arg0 Int) )(let (($x16 (>= arg0 0)))
 (=> (and $x16 (_48 arg0 time)) (_49 (+ arg0 1) (+ time 1)))))
 ))
 (let (($x16 (>= time 0)))
 (let (($x63 (and $x16 (< time 100))))
 (=> $x63 $x693)))))
 )
(assert
 (forall ((time Int) )(let (($x706 (forall ((arg0 Int) )(let (($x16 (>= arg0 0)))
 (=> (and $x16 (_49 arg0 time)) (_50 (+ arg0 1) (+ time 1)))))
 ))
 (let (($x16 (>= time 0)))
 (let (($x63 (and $x16 (< time 100))))
 (=> $x63 $x706)))))
 )
(assert
 (forall ((time Int) )(let (($x719 (forall ((arg0 Int) )(let (($x16 (>= arg0 0)))
 (=> (and $x16 (_50 arg0 time)) (_51 (+ arg0 1) (+ time 1)))))
 ))
 (let (($x16 (>= time 0)))
 (let (($x63 (and $x16 (< time 100))))
 (=> $x63 $x719)))))
 )
(assert
 (forall ((time Int) )(let (($x732 (forall ((arg0 Int) )(let (($x16 (>= arg0 0)))
 (=> (and $x16 (_51 arg0 time)) (_52 (+ arg0 1) (+ time 1)))))
 ))
 (let (($x16 (>= time 0)))
 (let (($x63 (and $x16 (< time 100))))
 (=> $x63 $x732)))))
 )
(assert
 (forall ((time Int) )(let (($x745 (forall ((arg0 Int) )(let (($x16 (>= arg0 0)))
 (=> (and $x16 (_52 arg0 time)) (_53 (+ arg0 1) (+ time 1)))))
 ))
 (let (($x16 (>= time 0)))
 (let (($x63 (and $x16 (< time 100))))
 (=> $x63 $x745)))))
 )
(assert
 (forall ((time Int) )(let (($x758 (forall ((arg0 Int) )(let (($x16 (>= arg0 0)))
 (=> (and $x16 (_53 arg0 time)) (_54 (+ arg0 1) (+ time 1)))))
 ))
 (let (($x16 (>= time 0)))
 (let (($x63 (and $x16 (< time 100))))
 (=> $x63 $x758)))))
 )
(assert
 (forall ((time Int) )(let (($x771 (forall ((arg0 Int) )(let (($x16 (>= arg0 0)))
 (=> (and $x16 (_54 arg0 time)) (_55 (+ arg0 1) (+ time 1)))))
 ))
 (let (($x16 (>= time 0)))
 (let (($x63 (and $x16 (< time 100))))
 (=> $x63 $x771)))))
 )
(assert
 (forall ((time Int) )(let (($x784 (forall ((arg0 Int) )(let (($x16 (>= arg0 0)))
 (=> (and $x16 (_55 arg0 time)) (_56 (+ arg0 1) (+ time 1)))))
 ))
 (let (($x16 (>= time 0)))
 (let (($x63 (and $x16 (< time 100))))
 (=> $x63 $x784)))))
 )
(assert
 (forall ((time Int) )(let (($x797 (forall ((arg0 Int) )(let (($x16 (>= arg0 0)))
 (=> (and $x16 (_56 arg0 time)) (_57 (+ arg0 1) (+ time 1)))))
 ))
 (let (($x16 (>= time 0)))
 (let (($x63 (and $x16 (< time 100))))
 (=> $x63 $x797)))))
 )
(assert
 (forall ((time Int) )(let (($x810 (forall ((arg0 Int) )(let (($x16 (>= arg0 0)))
 (=> (and $x16 (_57 arg0 time)) (_58 (+ arg0 1) (+ time 1)))))
 ))
 (let (($x16 (>= time 0)))
 (let (($x63 (and $x16 (< time 100))))
 (=> $x63 $x810)))))
 )
(assert
 (forall ((time Int) )(let (($x823 (forall ((arg0 Int) )(let (($x16 (>= arg0 0)))
 (=> (and $x16 (_58 arg0 time)) (_59 (+ arg0 1) (+ time 1)))))
 ))
 (let (($x16 (>= time 0)))
 (let (($x63 (and $x16 (< time 100))))
 (=> $x63 $x823)))))
 )
(assert
 (forall ((time Int) )(let (($x836 (forall ((arg0 Int) )(let (($x16 (>= arg0 0)))
 (=> (and $x16 (_59 arg0 time)) (_60 (+ arg0 1) (+ time 1)))))
 ))
 (let (($x16 (>= time 0)))
 (let (($x63 (and $x16 (< time 100))))
 (=> $x63 $x836)))))
 )
(assert
 (forall ((time Int) )(let (($x849 (forall ((arg0 Int) )(let (($x16 (>= arg0 0)))
 (=> (and $x16 (_60 arg0 time)) (_61 (+ arg0 1) (+ time 1)))))
 ))
 (let (($x16 (>= time 0)))
 (let (($x63 (and $x16 (< time 100))))
 (=> $x63 $x849)))))
 )
(assert
 (forall ((time Int) )(let (($x862 (forall ((arg0 Int) )(let (($x16 (>= arg0 0)))
 (=> (and $x16 (_61 arg0 time)) (_62 (+ arg0 1) (+ time 1)))))
 ))
 (let (($x16 (>= time 0)))
 (let (($x63 (and $x16 (< time 100))))
 (=> $x63 $x862)))))
 )
(assert
 (forall ((time Int) )(let (($x875 (forall ((arg0 Int) )(let (($x16 (>= arg0 0)))
 (=> (and $x16 (_62 arg0 time)) (_63 (+ arg0 1) (+ time 1)))))
 ))
 (let (($x16 (>= time 0)))
 (let (($x63 (and $x16 (< time 100))))
 (=> $x63 $x875)))))
 )
(assert
 (forall ((time Int) )(let (($x888 (forall ((arg0 Int) )(let (($x16 (>= arg0 0)))
 (=> (and $x16 (_63 arg0 time)) (_64 (+ arg0 1) (+ time 1)))))
 ))
 (let (($x16 (>= time 0)))
 (let (($x63 (and $x16 (< time 100))))
 (=> $x63 $x888)))))
 )
(assert
 (forall ((time Int) )(let (($x901 (forall ((arg0 Int) )(let (($x16 (>= arg0 0)))
 (=> (and $x16 (_64 arg0 time)) (_65 (+ arg0 1) (+ time 1)))))
 ))
 (let (($x16 (>= time 0)))
 (let (($x63 (and $x16 (< time 100))))
 (=> $x63 $x901)))))
 )
(assert
 (forall ((time Int) )(let (($x914 (forall ((arg0 Int) )(let (($x16 (>= arg0 0)))
 (=> (and $x16 (_65 arg0 time)) (_66 (+ arg0 1) (+ time 1)))))
 ))
 (let (($x16 (>= time 0)))
 (let (($x63 (and $x16 (< time 100))))
 (=> $x63 $x914)))))
 )
(assert
 (forall ((time Int) )(let (($x927 (forall ((arg0 Int) )(let (($x16 (>= arg0 0)))
 (=> (and $x16 (_66 arg0 time)) (_67 (+ arg0 1) (+ time 1)))))
 ))
 (let (($x16 (>= time 0)))
 (let (($x63 (and $x16 (< time 100))))
 (=> $x63 $x927)))))
 )
(assert
 (forall ((time Int) )(let (($x940 (forall ((arg0 Int) )(let (($x16 (>= arg0 0)))
 (=> (and $x16 (_67 arg0 time)) (_68 (+ arg0 1) (+ time 1)))))
 ))
 (let (($x16 (>= time 0)))
 (let (($x63 (and $x16 (< time 100))))
 (=> $x63 $x940)))))
 )
(assert
 (forall ((time Int) )(let (($x953 (forall ((arg0 Int) )(let (($x16 (>= arg0 0)))
 (=> (and $x16 (_68 arg0 time)) (_69 (+ arg0 1) (+ time 1)))))
 ))
 (let (($x16 (>= time 0)))
 (let (($x63 (and $x16 (< time 100))))
 (=> $x63 $x953)))))
 )
(assert
 (forall ((time Int) )(let (($x966 (forall ((arg0 Int) )(let (($x16 (>= arg0 0)))
 (=> (and $x16 (_69 arg0 time)) (_70 (+ arg0 1) (+ time 1)))))
 ))
 (let (($x16 (>= time 0)))
 (let (($x63 (and $x16 (< time 100))))
 (=> $x63 $x966)))))
 )
(assert
 (forall ((time Int) )(let (($x979 (forall ((arg0 Int) )(let (($x16 (>= arg0 0)))
 (=> (and $x16 (_70 arg0 time)) (_71 (+ arg0 1) (+ time 1)))))
 ))
 (let (($x16 (>= time 0)))
 (let (($x63 (and $x16 (< time 100))))
 (=> $x63 $x979)))))
 )
(assert
 (forall ((time Int) )(let (($x992 (forall ((arg0 Int) )(let (($x16 (>= arg0 0)))
 (=> (and $x16 (_71 arg0 time)) (_72 (+ arg0 1) (+ time 1)))))
 ))
 (let (($x16 (>= time 0)))
 (let (($x63 (and $x16 (< time 100))))
 (=> $x63 $x992)))))
 )
(assert
 (forall ((time Int) )(let (($x1005 (forall ((arg0 Int) )(let (($x16 (>= arg0 0)))
 (=> (and $x16 (_72 arg0 time)) (_73 (+ arg0 1) (+ time 1)))))
 ))
 (let (($x16 (>= time 0)))
 (let (($x63 (and $x16 (< time 100))))
 (=> $x63 $x1005)))))
 )
(assert
 (forall ((time Int) )(let (($x1018 (forall ((arg0 Int) )(let (($x16 (>= arg0 0)))
 (=> (and $x16 (_73 arg0 time)) (_74 (+ arg0 1) (+ time 1)))))
 ))
 (let (($x16 (>= time 0)))
 (let (($x63 (and $x16 (< time 100))))
 (=> $x63 $x1018)))))
 )
(assert
 (forall ((time Int) )(let (($x1031 (forall ((arg0 Int) )(let (($x16 (>= arg0 0)))
 (=> (and $x16 (_74 arg0 time)) (_75 (+ arg0 1) (+ time 1)))))
 ))
 (let (($x16 (>= time 0)))
 (let (($x63 (and $x16 (< time 100))))
 (=> $x63 $x1031)))))
 )
(assert
 (forall ((time Int) )(let (($x1044 (forall ((arg0 Int) )(let (($x16 (>= arg0 0)))
 (=> (and $x16 (_75 arg0 time)) (_76 (+ arg0 1) (+ time 1)))))
 ))
 (let (($x16 (>= time 0)))
 (let (($x63 (and $x16 (< time 100))))
 (=> $x63 $x1044)))))
 )
(assert
 (forall ((time Int) )(let (($x1057 (forall ((arg0 Int) )(let (($x16 (>= arg0 0)))
 (=> (and $x16 (_76 arg0 time)) (_77 (+ arg0 1) (+ time 1)))))
 ))
 (let (($x16 (>= time 0)))
 (let (($x63 (and $x16 (< time 100))))
 (=> $x63 $x1057)))))
 )
(assert
 (forall ((time Int) )(let (($x1070 (forall ((arg0 Int) )(let (($x16 (>= arg0 0)))
 (=> (and $x16 (_77 arg0 time)) (_78 (+ arg0 1) (+ time 1)))))
 ))
 (let (($x16 (>= time 0)))
 (let (($x63 (and $x16 (< time 100))))
 (=> $x63 $x1070)))))
 )
(assert
 (forall ((time Int) )(let (($x1083 (forall ((arg0 Int) )(let (($x16 (>= arg0 0)))
 (=> (and $x16 (_78 arg0 time)) (_79 (+ arg0 1) (+ time 1)))))
 ))
 (let (($x16 (>= time 0)))
 (let (($x63 (and $x16 (< time 100))))
 (=> $x63 $x1083)))))
 )
(assert
 (forall ((time Int) )(let (($x1096 (forall ((arg0 Int) )(let (($x16 (>= arg0 0)))
 (=> (and $x16 (_79 arg0 time)) (_80 (+ arg0 1) (+ time 1)))))
 ))
 (let (($x16 (>= time 0)))
 (let (($x63 (and $x16 (< time 100))))
 (=> $x63 $x1096)))))
 )
(assert
 (forall ((time Int) )(let (($x1109 (forall ((arg0 Int) )(let (($x16 (>= arg0 0)))
 (=> (and $x16 (_80 arg0 time)) (_81 (+ arg0 1) (+ time 1)))))
 ))
 (let (($x16 (>= time 0)))
 (let (($x63 (and $x16 (< time 100))))
 (=> $x63 $x1109)))))
 )
(assert
 (forall ((time Int) )(let (($x1122 (forall ((arg0 Int) )(let (($x16 (>= arg0 0)))
 (=> (and $x16 (_81 arg0 time)) (_82 (+ arg0 1) (+ time 1)))))
 ))
 (let (($x16 (>= time 0)))
 (let (($x63 (and $x16 (< time 100))))
 (=> $x63 $x1122)))))
 )
(assert
 (forall ((time Int) )(let (($x1135 (forall ((arg0 Int) )(let (($x16 (>= arg0 0)))
 (=> (and $x16 (_82 arg0 time)) (_83 (+ arg0 1) (+ time 1)))))
 ))
 (let (($x16 (>= time 0)))
 (let (($x63 (and $x16 (< time 100))))
 (=> $x63 $x1135)))))
 )
(assert
 (forall ((time Int) )(let (($x1148 (forall ((arg0 Int) )(let (($x16 (>= arg0 0)))
 (=> (and $x16 (_83 arg0 time)) (_84 (+ arg0 1) (+ time 1)))))
 ))
 (let (($x16 (>= time 0)))
 (let (($x63 (and $x16 (< time 100))))
 (=> $x63 $x1148)))))
 )
(assert
 (forall ((time Int) )(let (($x1161 (forall ((arg0 Int) )(let (($x16 (>= arg0 0)))
 (=> (and $x16 (_84 arg0 time)) (_85 (+ arg0 1) (+ time 1)))))
 ))
 (let (($x16 (>= time 0)))
 (let (($x63 (and $x16 (< time 100))))
 (=> $x63 $x1161)))))
 )
(assert
 (forall ((time Int) )(let (($x1174 (forall ((arg0 Int) )(let (($x16 (>= arg0 0)))
 (=> (and $x16 (_85 arg0 time)) (_86 (+ arg0 1) (+ time 1)))))
 ))
 (let (($x16 (>= time 0)))
 (let (($x63 (and $x16 (< time 100))))
 (=> $x63 $x1174)))))
 )
(assert
 (forall ((time Int) )(let (($x1187 (forall ((arg0 Int) )(let (($x16 (>= arg0 0)))
 (=> (and $x16 (_86 arg0 time)) (_87 (+ arg0 1) (+ time 1)))))
 ))
 (let (($x16 (>= time 0)))
 (let (($x63 (and $x16 (< time 100))))
 (=> $x63 $x1187)))))
 )
(assert
 (forall ((time Int) )(let (($x1200 (forall ((arg0 Int) )(let (($x16 (>= arg0 0)))
 (=> (and $x16 (_87 arg0 time)) (_88 (+ arg0 1) (+ time 1)))))
 ))
 (let (($x16 (>= time 0)))
 (let (($x63 (and $x16 (< time 100))))
 (=> $x63 $x1200)))))
 )
(assert
 (forall ((time Int) )(let (($x1213 (forall ((arg0 Int) )(let (($x16 (>= arg0 0)))
 (=> (and $x16 (_88 arg0 time)) (_89 (+ arg0 1) (+ time 1)))))
 ))
 (let (($x16 (>= time 0)))
 (let (($x63 (and $x16 (< time 100))))
 (=> $x63 $x1213)))))
 )
(assert
 (forall ((time Int) )(let (($x1226 (forall ((arg0 Int) )(let (($x16 (>= arg0 0)))
 (=> (and $x16 (_89 arg0 time)) (_90 (+ arg0 1) (+ time 1)))))
 ))
 (let (($x16 (>= time 0)))
 (let (($x63 (and $x16 (< time 100))))
 (=> $x63 $x1226)))))
 )
(assert
 (forall ((time Int) )(let (($x1239 (forall ((arg0 Int) )(let (($x16 (>= arg0 0)))
 (=> (and $x16 (_90 arg0 time)) (_91 (+ arg0 1) (+ time 1)))))
 ))
 (let (($x16 (>= time 0)))
 (let (($x63 (and $x16 (< time 100))))
 (=> $x63 $x1239)))))
 )
(assert
 (forall ((time Int) )(let (($x1252 (forall ((arg0 Int) )(let (($x16 (>= arg0 0)))
 (=> (and $x16 (_91 arg0 time)) (_92 (+ arg0 1) (+ time 1)))))
 ))
 (let (($x16 (>= time 0)))
 (let (($x63 (and $x16 (< time 100))))
 (=> $x63 $x1252)))))
 )
(assert
 (forall ((time Int) )(let (($x1265 (forall ((arg0 Int) )(let (($x16 (>= arg0 0)))
 (=> (and $x16 (_92 arg0 time)) (_93 (+ arg0 1) (+ time 1)))))
 ))
 (let (($x16 (>= time 0)))
 (let (($x63 (and $x16 (< time 100))))
 (=> $x63 $x1265)))))
 )
(assert
 (forall ((time Int) )(let (($x1278 (forall ((arg0 Int) )(let (($x16 (>= arg0 0)))
 (=> (and $x16 (_93 arg0 time)) (_94 (+ arg0 1) (+ time 1)))))
 ))
 (let (($x16 (>= time 0)))
 (let (($x63 (and $x16 (< time 100))))
 (=> $x63 $x1278)))))
 )
(assert
 (forall ((time Int) )(let (($x1291 (forall ((arg0 Int) )(let (($x16 (>= arg0 0)))
 (=> (and $x16 (_94 arg0 time)) (_95 (+ arg0 1) (+ time 1)))))
 ))
 (let (($x16 (>= time 0)))
 (let (($x63 (and $x16 (< time 100))))
 (=> $x63 $x1291)))))
 )
(assert
 (forall ((time Int) )(let (($x1304 (forall ((arg0 Int) )(let (($x16 (>= arg0 0)))
 (=> (and $x16 (_95 arg0 time)) (_96 (+ arg0 1) (+ time 1)))))
 ))
 (let (($x16 (>= time 0)))
 (let (($x63 (and $x16 (< time 100))))
 (=> $x63 $x1304)))))
 )
(assert
 (forall ((time Int) )(let (($x1317 (forall ((arg0 Int) )(let (($x16 (>= arg0 0)))
 (=> (and $x16 (_96 arg0 time)) (_97 (+ arg0 1) (+ time 1)))))
 ))
 (let (($x16 (>= time 0)))
 (let (($x63 (and $x16 (< time 100))))
 (=> $x63 $x1317)))))
 )
(assert
 (forall ((time Int) )(let (($x1330 (forall ((arg0 Int) )(let (($x16 (>= arg0 0)))
 (=> (and $x16 (_97 arg0 time)) (_98 (+ arg0 1) (+ time 1)))))
 ))
 (let (($x16 (>= time 0)))
 (let (($x63 (and $x16 (< time 100))))
 (=> $x63 $x1330)))))
 )
(assert
 (forall ((time Int) )(let (($x1343 (forall ((arg0 Int) )(let (($x16 (>= arg0 0)))
 (=> (and $x16 (_98 arg0 time)) (_99 (+ arg0 1) (+ time 1)))))
 ))
 (let (($x16 (>= time 0)))
 (let (($x63 (and $x16 (< time 100))))
 (=> $x63 $x1343)))))
 )
(assert
 (forall ((time Int) )(let (($x1356 (forall ((arg0 Int) )(let (($x16 (>= arg0 0)))
 (=> (and $x16 (_99 arg0 time)) (_100 (+ arg0 1) (+ time 1)))))
 ))
 (let (($x16 (>= time 0)))
 (let (($x63 (and $x16 (< time 100))))
 (=> $x63 $x1356)))))
 )
(assert
 (exists ((time Int) )(forall ((arg0 Int) )(let (($x16 (>= arg0 0)))
 (=> $x16 (and (_0 arg0 time) (and (distinct arg0 0) true)))))
 )
 )
(check-sat)